NAME PortOpt_n20_m8_inst_3
ROWS
 N  OBJ
 E  budget  
 L  return  
 L  uncertain_risk
 L  fixed_risk
COLUMNS
    asset[0]  budget    1
    asset[0]  return    -2.8262027219201986e+00
    asset[1]  budget    1
    asset[1]  return    -3.1552332129375911e+00
    asset[2]  budget    1
    asset[2]  return    -3.5758229756558890e+00
    asset[3]  budget    1
    asset[3]  return    -1.3542862188709535e+00
    asset[4]  budget    1
    asset[4]  return    -4.0550499943490657e+00
    asset[5]  budget    1
    asset[5]  return    -3.9634278593121977e+00
    asset[6]  budget    1
    asset[6]  return    -1.2188046670234021e+00
    asset[7]  budget    1
    asset[7]  return    -4.6260087788445023e+00
    asset[8]  budget    1
    asset[8]  return    -2.8560393315121479e+00
    asset[9]  budget    1
    asset[9]  return    -2.1219030549868205e+00
    asset[10]  budget    1
    asset[10]  return    -3.4149432467197438e+00
    asset[11]  budget    1
    asset[11]  return    -2.5067879598607563e+00
    asset[12]  budget    1
    asset[12]  return    -4.0975215154807136e+00
    asset[13]  budget    1
    asset[13]  return    -2.9322239636934522e+00
    asset[14]  budget    1
    asset[14]  return    -4.0353552790192824e+00
    asset[15]  budget    1
    asset[15]  return    -1.1114992635772254e+00
    asset[16]  budget    1
    asset[16]  return    -3.8188249920868254e+00
    asset[17]  budget    1
    asset[17]  return    -2.6847848415888875e+00
    asset[18]  budget    1
    asset[18]  return    -3.2970623845010785e+00
    asset[19]  budget    1
    asset[19]  return    -3.4810405283753600e+00
    return_var  OBJ       -1
    return_var  return    1
    uncertain_risk_var  OBJ       1
    uncertain_risk_var  uncertain_risk  -1
    fixed_risk_var  OBJ       1
    fixed_risk_var  fixed_risk  -1
RHS
    RHS1      budget    1
BOUNDS
 FR BND1      asset[0]
 FR BND1      asset[1]
 FR BND1      asset[2]
 FR BND1      asset[3]
 FR BND1      asset[4]
 FR BND1      asset[5]
 FR BND1      asset[6]
 FR BND1      asset[7]
 FR BND1      asset[8]
 FR BND1      asset[9]
 FR BND1      asset[10]
 FR BND1      asset[11]
 FR BND1      asset[12]
 FR BND1      asset[13]
 FR BND1      asset[14]
 FR BND1      asset[15]
 FR BND1      asset[16]
 FR BND1      asset[17]
 FR BND1      asset[18]
 FR BND1      asset[19]
 FR BND1      return_var
 FR BND1      uncertain_risk_var
 FR BND1      fixed_risk_var
QCMATRIX   uncertain_risk
    asset[0]  asset[0]  9.0368956103500181e-02
    asset[0]  asset[1]  4.0335761470732361e-02
    asset[1]  asset[0]  4.0335761470732361e-02
    asset[0]  asset[2]  1.1966733106578024e-02
    asset[2]  asset[0]  1.1966733106578024e-02
    asset[0]  asset[3]  2.0834563626512696e-02
    asset[3]  asset[0]  2.0834563626512696e-02
    asset[0]  asset[4]  -8.0657681281121330e-02
    asset[4]  asset[0]  -8.0657681281121330e-02
    asset[0]  asset[5]  1.0021781563062979e-02
    asset[5]  asset[0]  1.0021781563062979e-02
    asset[0]  asset[6]  9.6027684026541507e-03
    asset[6]  asset[0]  9.6027684026541507e-03
    asset[0]  asset[7]  3.7459543568768190e-02
    asset[7]  asset[0]  3.7459543568768190e-02
    asset[0]  asset[8]  -2.2047791933319329e-02
    asset[8]  asset[0]  -2.2047791933319329e-02
    asset[0]  asset[9]  3.2789225527652703e-03
    asset[9]  asset[0]  3.2789225527652703e-03
    asset[0]  asset[10]  -3.6732941200303335e-02
    asset[10]  asset[0]  -3.6732941200303335e-02
    asset[0]  asset[11]  -1.8868543068312767e-02
    asset[11]  asset[0]  -1.8868543068312767e-02
    asset[0]  asset[12]  5.3708587102566773e-03
    asset[12]  asset[0]  5.3708587102566773e-03
    asset[0]  asset[13]  -2.4265188531852180e-02
    asset[13]  asset[0]  -2.4265188531852180e-02
    asset[0]  asset[14]  -2.3369183660872005e-02
    asset[14]  asset[0]  -2.3369183660872005e-02
    asset[0]  asset[15]  -2.1097488205991666e-02
    asset[15]  asset[0]  -2.1097488205991666e-02
    asset[0]  asset[16]  3.9502583992893150e-02
    asset[16]  asset[0]  3.9502583992893150e-02
    asset[0]  asset[17]  -2.5838950495551651e-02
    asset[17]  asset[0]  -2.5838950495551651e-02
    asset[0]  asset[18]  -4.2054435146066320e-02
    asset[18]  asset[0]  -4.2054435146066320e-02
    asset[0]  asset[19]  8.5580172725109732e-02
    asset[19]  asset[0]  8.5580172725109732e-02
    asset[1]  asset[1]  8.7973503927532254e-02
    asset[1]  asset[2]  -1.9477749342228314e-02
    asset[2]  asset[1]  -1.9477749342228314e-02
    asset[1]  asset[3]  1.6200981846002771e-02
    asset[3]  asset[1]  1.6200981846002771e-02
    asset[1]  asset[4]  -8.0530135897308702e-02
    asset[4]  asset[1]  -8.0530135897308702e-02
    asset[1]  asset[5]  -6.9591774513675089e-03
    asset[5]  asset[1]  -6.9591774513675089e-03
    asset[1]  asset[6]  2.2104990028034757e-02
    asset[6]  asset[1]  2.2104990028034757e-02
    asset[1]  asset[7]  4.0151617777915691e-02
    asset[7]  asset[1]  4.0151617777915691e-02
    asset[1]  asset[8]  -1.0310454477027352e-02
    asset[8]  asset[1]  -1.0310454477027352e-02
    asset[1]  asset[9]  5.3534122026808635e-03
    asset[9]  asset[1]  5.3534122026808635e-03
    asset[1]  asset[10]  -6.6286759800835621e-02
    asset[10]  asset[1]  -6.6286759800835621e-02
    asset[1]  asset[11]  -7.6289719860623079e-02
    asset[11]  asset[1]  -7.6289719860623079e-02
    asset[1]  asset[12]  -8.5814718832871056e-04
    asset[12]  asset[1]  -8.5814718832871056e-04
    asset[1]  asset[13]  -4.4871587098208564e-03
    asset[13]  asset[1]  -4.4871587098208564e-03
    asset[1]  asset[14]  -1.0474489942931813e-02
    asset[14]  asset[1]  -1.0474489942931813e-02
    asset[1]  asset[15]  -2.4665208887086336e-02
    asset[15]  asset[1]  -2.4665208887086336e-02
    asset[1]  asset[16]  -6.6467284502411449e-03
    asset[16]  asset[1]  -6.6467284502411449e-03
    asset[1]  asset[17]  6.3591632583908670e-03
    asset[17]  asset[1]  6.3591632583908670e-03
    asset[1]  asset[18]  -8.3480189128218064e-03
    asset[18]  asset[1]  -8.3480189128218064e-03
    asset[1]  asset[19]  2.8284259671831832e-02
    asset[19]  asset[1]  2.8284259671831832e-02
    asset[2]  asset[2]  1.4238433611331871e-02
    asset[2]  asset[3]  -3.4917239582239979e-03
    asset[3]  asset[2]  -3.4917239582239979e-03
    asset[2]  asset[4]  1.4759649794149465e-02
    asset[4]  asset[2]  1.4759649794149465e-02
    asset[2]  asset[5]  9.8258753147878151e-03
    asset[5]  asset[2]  9.8258753147878151e-03
    asset[2]  asset[6]  -6.8188075603186262e-03
    asset[6]  asset[2]  -6.8188075603186262e-03
    asset[2]  asset[7]  -1.2456095243217100e-02
    asset[7]  asset[2]  -1.2456095243217100e-02
    asset[2]  asset[8]  -2.2940479797046026e-03
    asset[8]  asset[2]  -2.2940479797046026e-03
    asset[2]  asset[9]  -2.3597347886395543e-03
    asset[9]  asset[2]  -2.3597347886395543e-03
    asset[2]  asset[10]  2.0641386333631981e-02
    asset[10]  asset[2]  2.0641386333631981e-02
    asset[2]  asset[11]  3.2286904970731889e-02
    asset[11]  asset[2]  3.2286904970731889e-02
    asset[2]  asset[12]  -5.3751536195017829e-04
    asset[12]  asset[2]  -5.3751536195017829e-04
    asset[2]  asset[13]  -3.7004362918840999e-03
    asset[13]  asset[2]  -3.7004362918840999e-03
    asset[2]  asset[14]  5.2835114511588319e-03
    asset[14]  asset[2]  5.2835114511588319e-03
    asset[2]  asset[15]  5.2598474351986634e-03
    asset[15]  asset[2]  5.2598474351986634e-03
    asset[2]  asset[16]  2.0596896523452930e-02
    asset[16]  asset[2]  2.0596896523452930e-02
    asset[2]  asset[17]  -1.8493493840916687e-02
    asset[17]  asset[2]  -1.8493493840916687e-02
    asset[2]  asset[18]  -4.8117236681012865e-03
    asset[18]  asset[2]  -4.8117236681012865e-03
    asset[2]  asset[19]  1.3617391916836658e-02
    asset[19]  asset[2]  1.3617391916836658e-02
    asset[3]  asset[3]  3.3598580736185407e-02
    asset[3]  asset[4]  -1.1823017577833059e-02
    asset[4]  asset[3]  -1.1823017577833059e-02
    asset[3]  asset[5]  -6.2530944026724438e-03
    asset[5]  asset[3]  -6.2530944026724438e-03
    asset[3]  asset[6]  3.5834578209740136e-03
    asset[6]  asset[3]  3.5834578209740136e-03
    asset[3]  asset[7]  2.4043636989387145e-02
    asset[7]  asset[3]  2.4043636989387145e-02
    asset[3]  asset[8]  -1.4283404593533441e-02
    asset[8]  asset[3]  -1.4283404593533441e-02
    asset[3]  asset[9]  1.0987518825817938e-02
    asset[9]  asset[3]  1.0987518825817938e-02
    asset[3]  asset[10]  -3.1449122701315106e-02
    asset[10]  asset[3]  -3.1449122701315106e-02
    asset[3]  asset[11]  -3.5617615013082762e-02
    asset[11]  asset[3]  -3.5617615013082762e-02
    asset[3]  asset[12]  8.3573025992864460e-04
    asset[12]  asset[3]  8.3573025992864460e-04
    asset[3]  asset[13]  5.3875544022398078e-04
    asset[13]  asset[3]  5.3875544022398078e-04
    asset[3]  asset[14]  -1.3895175510762046e-02
    asset[14]  asset[3]  -1.3895175510762046e-02
    asset[3]  asset[15]  -1.4089518638289715e-02
    asset[15]  asset[3]  -1.4089518638289715e-02
    asset[3]  asset[16]  -1.6595648344887762e-02
    asset[16]  asset[3]  -1.6595648344887762e-02
    asset[3]  asset[17]  -3.3015491609236667e-03
    asset[17]  asset[3]  -3.3015491609236667e-03
    asset[3]  asset[18]  -3.1012228995792222e-02
    asset[18]  asset[3]  -3.1012228995792222e-02
    asset[3]  asset[19]  3.6081708835355520e-04
    asset[19]  asset[3]  3.6081708835355520e-04
    asset[4]  asset[4]  1.4839807301361380e-01
    asset[4]  asset[5]  -3.1711401788833780e-03
    asset[5]  asset[4]  -3.1711401788833780e-03
    asset[4]  asset[6]  -1.9341603857104456e-02
    asset[6]  asset[4]  -1.9341603857104456e-02
    asset[4]  asset[7]  -7.0228159391549916e-02
    asset[7]  asset[4]  -7.0228159391549916e-02
    asset[4]  asset[8]  1.2992210142491641e-02
    asset[8]  asset[4]  1.2992210142491641e-02
    asset[4]  asset[9]  -1.8683806161993203e-03
    asset[9]  asset[4]  -1.8683806161993203e-03
    asset[4]  asset[10]  7.4040730442693242e-02
    asset[10]  asset[4]  7.4040730442693242e-02
    asset[4]  asset[11]  8.1874205908033543e-02
    asset[11]  asset[4]  8.1874205908033543e-02
    asset[4]  asset[12]  -1.3001689467884416e-02
    asset[12]  asset[4]  -1.3001689467884416e-02
    asset[4]  asset[13]  2.6739762229769197e-02
    asset[13]  asset[4]  2.6739762229769197e-02
    asset[4]  asset[14]  3.9198192178555205e-02
    asset[14]  asset[4]  3.9198192178555205e-02
    asset[4]  asset[15]  3.6134129035737879e-02
    asset[15]  asset[4]  3.6134129035737879e-02
    asset[4]  asset[16]  -1.3122336984391076e-02
    asset[16]  asset[4]  -1.3122336984391076e-02
    asset[4]  asset[17]  -1.2160736743989157e-02
    asset[17]  asset[4]  -1.2160736743989157e-02
    asset[4]  asset[18]  3.4579493554323874e-02
    asset[18]  asset[4]  3.4579493554323874e-02
    asset[4]  asset[19]  -9.8648647813268570e-02
    asset[19]  asset[4]  -9.8648647813268570e-02
    asset[5]  asset[5]  3.2563989901010081e-02
    asset[5]  asset[6]  -1.6467812171102641e-02
    asset[6]  asset[5]  -1.6467812171102641e-02
    asset[5]  asset[7]  -8.6177250017770973e-03
    asset[7]  asset[5]  -8.6177250017770973e-03
    asset[5]  asset[8]  -1.7646247238753177e-04
    asset[8]  asset[5]  -1.7646247238753177e-04
    asset[5]  asset[9]  -5.4062342132481069e-03
    asset[9]  asset[5]  -5.4062342132481069e-03
    asset[5]  asset[10]  1.9727419629553145e-02
    asset[10]  asset[5]  1.9727419629553145e-02
    asset[5]  asset[11]  1.7176658037027673e-02
    asset[11]  asset[5]  1.7176658037027673e-02
    asset[5]  asset[12]  2.4411185622808169e-04
    asset[12]  asset[5]  2.4411185622808169e-04
    asset[5]  asset[13]  4.8388288754749355e-03
    asset[13]  asset[5]  4.8388288754749355e-03
    asset[5]  asset[14]  1.5517938190981656e-02
    asset[14]  asset[5]  1.5517938190981656e-02
    asset[5]  asset[15]  -4.7289181737459156e-03
    asset[15]  asset[5]  -4.7289181737459156e-03
    asset[5]  asset[16]  1.4085028631497697e-02
    asset[16]  asset[5]  1.4085028631497697e-02
    asset[5]  asset[17]  -2.8861501625639989e-02
    asset[17]  asset[5]  -2.8861501625639989e-02
    asset[5]  asset[18]  -8.1640170028726942e-03
    asset[18]  asset[5]  -8.1640170028726942e-03
    asset[5]  asset[19]  3.8387922668880511e-02
    asset[19]  asset[5]  3.8387922668880511e-02
    asset[6]  asset[6]  1.9050697784024153e-02
    asset[6]  asset[7]  7.0467114214357559e-03
    asset[7]  asset[6]  7.0467114214357559e-03
    asset[6]  asset[8]  -3.4592892987360233e-03
    asset[8]  asset[6]  -3.4592892987360233e-03
    asset[6]  asset[9]  1.8998919472064980e-03
    asset[9]  asset[6]  1.8998919472064980e-03
    asset[6]  asset[10]  -2.1634697938244591e-02
    asset[10]  asset[6]  -2.1634697938244591e-02
    asset[6]  asset[11]  -1.7589370680446692e-02
    asset[11]  asset[6]  -1.7589370680446692e-02
    asset[6]  asset[12]  -4.5510788289859338e-03
    asset[12]  asset[6]  -4.5510788289859338e-03
    asset[6]  asset[13]  -1.6769190219003841e-03
    asset[13]  asset[6]  -1.6769190219003841e-03
    asset[6]  asset[14]  -5.8605592590718477e-03
    asset[14]  asset[6]  -5.8605592590718477e-03
    asset[6]  asset[15]  -3.7865888040187427e-03
    asset[15]  asset[6]  -3.7865888040187427e-03
    asset[6]  asset[16]  -4.7038887835021241e-03
    asset[16]  asset[6]  -4.7038887835021241e-03
    asset[6]  asset[17]  1.3523589550659996e-02
    asset[17]  asset[6]  1.3523589550659996e-02
    asset[6]  asset[18]  1.0411266495102607e-02
    asset[18]  asset[6]  1.0411266495102607e-02
    asset[6]  asset[19]  -7.2348518401814006e-03
    asset[19]  asset[6]  -7.2348518401814006e-03
    asset[7]  asset[7]  5.1452988628598061e-02
    asset[7]  asset[8]  -1.0475007412350638e-02
    asset[8]  asset[7]  -1.0475007412350638e-02
    asset[7]  asset[9]  7.9131469086075705e-03
    asset[9]  asset[7]  7.9131469086075705e-03
    asset[7]  asset[10]  -5.2314137990148363e-02
    asset[10]  asset[7]  -5.2314137990148363e-02
    asset[7]  asset[11]  -6.1867391628453491e-02
    asset[11]  asset[7]  -6.1867391628453491e-02
    asset[7]  asset[12]  1.1563423156879166e-02
    asset[12]  asset[7]  1.1563423156879166e-02
    asset[7]  asset[13]  -1.4785591130216153e-02
    asset[13]  asset[7]  -1.4785591130216153e-02
    asset[7]  asset[14]  -3.4076471364267238e-02
    asset[14]  asset[7]  -3.4076471364267238e-02
    asset[7]  asset[15]  -2.0711733687698807e-02
    asset[15]  asset[7]  -2.0711733687698807e-02
    asset[7]  asset[16]  -8.9361320565173284e-03
    asset[16]  asset[7]  -8.9361320565173284e-03
    asset[7]  asset[17]  1.4160764007550137e-02
    asset[17]  asset[7]  1.4160764007550137e-02
    asset[7]  asset[18]  -3.5897846136588113e-02
    asset[18]  asset[7]  -3.5897846136588113e-02
    asset[7]  asset[19]  3.5415575387642423e-02
    asset[19]  asset[7]  3.5415575387642423e-02
    asset[8]  asset[8]  8.9302718949363421e-03
    asset[8]  asset[9]  -3.9402505882749307e-03
    asset[9]  asset[8]  -3.9402505882749307e-03
    asset[8]  asset[10]  1.3833617450181572e-02
    asset[10]  asset[8]  1.3833617450181572e-02
    asset[8]  asset[11]  9.8082876896540758e-03
    asset[11]  asset[8]  9.8082876896540758e-03
    asset[8]  asset[12]  7.2410149914014447e-04
    asset[12]  asset[8]  7.2410149914014447e-04
    asset[8]  asset[13]  2.8543563258954341e-03
    asset[13]  asset[8]  2.8543563258954341e-03
    asset[8]  asset[14]  5.4171317790652450e-03
    asset[14]  asset[8]  5.4171317790652450e-03
    asset[8]  asset[15]  7.0503366035337880e-03
    asset[15]  asset[8]  7.0503366035337880e-03
    asset[8]  asset[16]  -3.6135114589607551e-03
    asset[16]  asset[8]  -3.6135114589607551e-03
    asset[8]  asset[17]  8.0103892271457151e-03
    asset[17]  asset[8]  8.0103892271457151e-03
    asset[8]  asset[18]  1.5552977895981470e-02
    asset[18]  asset[8]  1.5552977895981470e-02
    asset[8]  asset[19]  -1.3585696775003604e-02
    asset[19]  asset[8]  -1.3585696775003604e-02
    asset[9]  asset[9]  4.7860558418633620e-03
    asset[9]  asset[10]  -1.1587790599445357e-02
    asset[10]  asset[9]  -1.1587790599445357e-02
    asset[9]  asset[11]  -1.4281032905771072e-02
    asset[11]  asset[9]  -1.4281032905771072e-02
    asset[9]  asset[12]  1.5495017908155351e-04
    asset[12]  asset[9]  1.5495017908155351e-04
    asset[9]  asset[13]  -5.6506635989972680e-04
    asset[13]  asset[9]  -5.6506635989972680e-04
    asset[9]  asset[14]  -4.6192094422519130e-03
    asset[14]  asset[9]  -4.6192094422519130e-03
    asset[9]  asset[15]  -4.1236195046944462e-03
    asset[15]  asset[9]  -4.1236195046944462e-03
    asset[9]  asset[16]  -7.3003960765212553e-03
    asset[16]  asset[9]  -7.3003960765212553e-03
    asset[9]  asset[17]  2.3396853184960154e-03
    asset[17]  asset[9]  2.3396853184960154e-03
    asset[9]  asset[18]  -1.0610886810236128e-02
    asset[18]  asset[9]  -1.0610886810236128e-02
    asset[9]  asset[19]  -7.0364229751891643e-03
    asset[19]  asset[9]  -7.0364229751891643e-03
    asset[10]  asset[10]  7.2363895276774615e-02
    asset[10]  asset[11]  8.4541548593306662e-02
    asset[11]  asset[10]  8.4541548593306662e-02
    asset[10]  asset[12]  -3.9757294321539089e-03
    asset[12]  asset[10]  -3.9757294321539089e-03
    asset[10]  asset[13]  8.0520267831960882e-03
    asset[13]  asset[10]  8.0520267831960882e-03
    asset[10]  asset[14]  2.8935320041237417e-02
    asset[14]  asset[10]  2.8935320041237417e-02
    asset[10]  asset[15]  2.6001828802402621e-02
    asset[15]  asset[10]  2.6001828802402621e-02
    asset[10]  asset[16]  2.2514175301895548e-02
    asset[16]  asset[10]  2.2514175301895548e-02
    asset[10]  asset[17]  -2.0394899696914229e-02
    asset[17]  asset[10]  -2.0394899696914229e-02
    asset[10]  asset[18]  2.5749302741945090e-02
    asset[18]  asset[10]  2.5749302741945090e-02
    asset[10]  asset[19]  -1.4893038197847718e-02
    asset[19]  asset[10]  -1.4893038197847718e-02
    asset[11]  asset[11]  1.2140599937219375e-01
    asset[11]  asset[12]  -8.0290193327596515e-03
    asset[12]  asset[11]  -8.0290193327596515e-03
    asset[11]  asset[13]  -9.9953509527602466e-04
    asset[13]  asset[11]  -9.9953509527602466e-04
    asset[11]  asset[14]  3.0902520040704706e-02
    asset[14]  asset[11]  3.0902520040704706e-02
    asset[11]  asset[15]  3.7123455668715256e-02
    asset[15]  asset[11]  3.7123455668715256e-02
    asset[11]  asset[16]  5.7434565376963037e-02
    asset[16]  asset[11]  5.7434565376963037e-02
    asset[11]  asset[17]  -3.2410541687638364e-02
    asset[17]  asset[11]  -3.2410541687638364e-02
    asset[11]  asset[18]  2.7393428025303649e-02
    asset[18]  asset[11]  2.7393428025303649e-02
    asset[11]  asset[19]  8.2268303011127420e-04
    asset[19]  asset[11]  8.2268303011127420e-04
    asset[12]  asset[12]  7.5748346390773959e-03
    asset[12]  asset[13]  -6.1195650360957301e-03
    asset[13]  asset[12]  -6.1195650360957301e-03
    asset[12]  asset[14]  -1.2110409217712054e-02
    asset[14]  asset[12]  -1.2110409217712054e-02
    asset[12]  asset[15]  -2.2588121164348936e-03
    asset[15]  asset[12]  -2.2588121164348936e-03
    asset[12]  asset[16]  -1.6610658513403142e-03
    asset[16]  asset[12]  -1.6610658513403142e-03
    asset[12]  asset[17]  4.3579926649249985e-03
    asset[17]  asset[12]  4.3579926649249985e-03
    asset[12]  asset[18]  -9.2992379027062554e-03
    asset[18]  asset[12]  -9.2992379027062554e-03
    asset[12]  asset[19]  9.6694901411237943e-03
    asset[19]  asset[12]  9.6694901411237943e-03
    asset[13]  asset[13]  1.7239502482695481e-02
    asset[13]  asset[14]  1.5060877285874420e-02
    asset[14]  asset[13]  1.5060877285874420e-02
    asset[13]  asset[15]  -1.6460897461669842e-04
    asset[15]  asset[13]  -1.6460897461669842e-04
    asset[13]  asset[16]  -2.1891391843909681e-02
    asset[16]  asset[13]  -2.1891391843909681e-02
    asset[13]  asset[17]  -1.9376870525212593e-03
    asset[17]  asset[13]  -1.9376870525212593e-03
    asset[13]  asset[18]  1.4923888974366270e-02
    asset[18]  asset[13]  1.4923888974366270e-02
    asset[13]  asset[19]  -2.4698154631684333e-02
    asset[19]  asset[13]  -2.4698154631684333e-02
    asset[14]  asset[14]  3.4680309551886279e-02
    asset[14]  asset[15]  8.2466133137148005e-03
    asset[15]  asset[14]  8.2466133137148005e-03
    asset[14]  asset[16]  7.5515475641246355e-03
    asset[16]  asset[14]  7.5515475641246355e-03
    asset[14]  asset[17]  -1.8776767789826756e-02
    asset[17]  asset[14]  -1.8776767789826756e-02
    asset[14]  asset[18]  2.0601607562795630e-02
    asset[18]  asset[14]  2.0601607562795630e-02
    asset[14]  asset[19]  -1.4777946235768315e-02
    asset[19]  asset[14]  -1.4777946235768315e-02
    asset[15]  asset[15]  1.7833948403993126e-02
    asset[15]  asset[16]  1.3770627665762130e-02
    asset[16]  asset[15]  1.3770627665762130e-02
    asset[15]  asset[17]  7.9955428239387506e-04
    asset[17]  asset[15]  7.9955428239387506e-04
    asset[15]  asset[18]  1.6215689376819518e-02
    asset[18]  asset[15]  1.6215689376819518e-02
    asset[15]  asset[19]  -1.8837856953339005e-02
    asset[19]  asset[15]  -1.8837856953339005e-02
    asset[16]  asset[16]  7.4884335519665279e-02
    asset[16]  asset[17]  -3.0268069567712906e-02
    asset[17]  asset[16]  -3.0268069567712906e-02
    asset[16]  asset[18]  -1.0118557123350844e-02
    asset[18]  asset[16]  -1.0118557123350844e-02
    asset[16]  asset[19]  5.9989496220647587e-02
    asset[19]  asset[16]  5.9989496220647587e-02
    asset[17]  asset[17]  4.3706920782992202e-02
    asset[17]  asset[18]  1.5404883688093677e-02
    asset[18]  asset[17]  1.5404883688093677e-02
    asset[17]  asset[19]  -3.6033127356230307e-02
    asset[19]  asset[17]  -3.6033127356230307e-02
    asset[18]  asset[18]  5.9847919464435309e-02
    asset[18]  asset[19]  -4.1403350643101106e-02
    asset[19]  asset[18]  -4.1403350643101106e-02
    asset[19]  asset[19]  1.3445613768666625e-01
QCMATRIX   fixed_risk
    asset[0]  asset[0]  8.2164525238292759e-03
    asset[1]  asset[1]  8.8571199288633284e-03
    asset[2]  asset[2]  1.4645117353710663e-03
    asset[3]  asset[3]  3.3253859676699083e-03
    asset[4]  asset[4]  1.4233705240556708e-02
    asset[5]  asset[5]  3.3521648914577092e-03
    asset[6]  asset[6]  1.7949366968494818e-03
    asset[7]  asset[7]  5.2146657458709209e-03
    asset[8]  asset[8]  8.6896315542516053e-04
    asset[9]  asset[9]  4.8234464094489590e-04
    asset[10]  asset[10]  7.0982914006573602e-03
    asset[11]  asset[11]  1.3369868489374935e-02
    asset[12]  asset[12]  8.1787028681063433e-04
    asset[13]  asset[13]  1.6117798455672694e-03
    asset[14]  asset[14]  3.8398282594132014e-03
    asset[15]  asset[15]  1.8174843037774696e-03
    asset[16]  asset[16]  8.3921262704799438e-03
    asset[17]  asset[17]  4.0651559478007589e-03
    asset[18]  asset[18]  5.7610220724002154e-03
    asset[19]  asset[19]  1.2523137647846029e-02
ENDATA
